c " random instance " 
p edges 200 2172
e 1 6
e 1 7
e 1 30
e 1 33
e 1 55
e 1 63
e 1 70
e 1 72
e 1 78
e 1 79
e 1 98
e 1 101
e 1 107
e 1 111
e 1 149
e 1 154
e 1 159
e 1 165
e 1 174
e 1 175
e 1 189
e 1 194
e 2 4
e 2 9
e 2 12
e 2 15
e 2 19
e 2 23
e 2 24
e 2 39
e 2 43
e 2 45
e 2 47
e 2 55
e 2 63
e 2 70
e 2 76
e 2 78
e 2 85
e 2 103
e 2 104
e 2 106
e 2 110
e 2 115
e 2 120
e 2 123
e 2 125
e 2 138
e 2 140
e 2 145
e 2 149
e 2 159
e 2 165
e 2 173
e 2 182
e 2 183
e 2 199
e 3 4
e 3 10
e 3 19
e 3 21
e 3 59
e 3 85
e 3 112
e 3 114
e 3 119
e 3 132
e 3 133
e 3 136
e 3 150
e 3 152
e 3 161
e 3 168
e 3 173
e 3 196
e 4 6
e 4 25
e 4 47
e 4 49
e 4 50
e 4 62
e 4 72
e 4 88
e 4 95
e 4 99
e 4 110
e 4 119
e 4 123
e 4 135
e 4 155
e 4 157
e 4 159
e 4 169
e 4 177
e 5 14
e 5 40
e 5 41
e 5 57
e 5 64
e 5 65
e 5 66
e 5 81
e 5 88
e 5 89
e 5 91
e 5 111
e 5 134
e 5 149
e 5 150
e 5 157
e 5 167
e 5 172
e 5 182
e 5 185
e 5 190
e 5 195
e 5 199
e 5 200
e 6 8
e 6 11
e 6 19
e 6 25
e 6 28
e 6 35
e 6 40
e 6 89
e 6 94
e 6 106
e 6 116
e 6 117
e 6 121
e 6 122
e 6 132
e 6 147
e 6 167
e 6 171
e 6 173
e 7 10
e 7 19
e 7 34
e 7 35
e 7 49
e 7 71
e 7 99
e 7 120
e 7 125
e 7 126
e 7 136
e 7 138
e 7 142
e 7 144
e 7 152
e 7 156
e 7 169
e 8 20
e 8 25
e 8 27
e 8 37
e 8 50
e 8 54
e 8 81
e 8 110
e 8 112
e 8 121
e 8 128
e 8 144
e 8 160
e 8 164
e 8 165
e 8 179
e 8 191
e 8 197
e 9 34
e 9 36
e 9 46
e 9 49
e 9 76
e 9 82
e 9 87
e 9 90
e 9 112
e 9 116
e 9 122
e 9 123
e 9 157
e 9 162
e 9 164
e 9 167
e 9 169
e 9 172
e 9 173
e 9 188
e 9 198
e 10 31
e 10 35
e 10 55
e 10 88
e 10 98
e 10 100
e 10 111
e 10 116
e 10 118
e 10 124
e 10 136
e 10 137
e 10 142
e 10 143
e 10 145
e 10 148
e 10 153
e 10 156
e 10 180
e 10 187
e 10 192
e 10 200
e 11 27
e 11 42
e 11 58
e 11 80
e 11 84
e 11 87
e 11 101
e 11 110
e 11 117
e 11 128
e 11 135
e 11 139
e 11 158
e 11 170
e 11 181
e 11 195
e 11 199
e 12 14
e 12 22
e 12 36
e 12 44
e 12 49
e 12 56
e 12 68
e 12 86
e 12 89
e 12 99
e 12 103
e 12 109
e 12 114
e 12 125
e 12 132
e 12 133
e 12 136
e 12 142
e 12 145
e 12 147
e 12 163
e 12 166
e 12 170
e 12 199
e 13 18
e 13 24
e 13 33
e 13 38
e 13 51
e 13 88
e 13 113
e 13 119
e 13 127
e 13 128
e 13 137
e 13 138
e 13 155
e 13 164
e 13 178
e 13 186
e 13 193
e 14 24
e 14 31
e 14 45
e 14 84
e 14 109
e 14 117
e 14 136
e 14 138
e 14 155
e 14 164
e 14 170
e 14 178
e 14 192
e 14 195
e 14 197
e 15 39
e 15 60
e 15 66
e 15 71
e 15 77
e 15 78
e 15 89
e 15 93
e 15 108
e 15 113
e 15 114
e 15 123
e 15 129
e 15 155
e 15 159
e 15 164
e 15 166
e 15 167
e 15 180
e 15 183
e 15 194
e 16 22
e 16 26
e 16 36
e 16 41
e 16 53
e 16 55
e 16 56
e 16 58
e 16 70
e 16 96
e 16 97
e 16 108
e 16 129
e 16 136
e 16 146
e 16 159
e 16 169
e 16 173
e 16 186
e 16 189
e 17 43
e 17 53
e 17 61
e 17 66
e 17 72
e 17 83
e 17 93
e 17 102
e 17 108
e 17 113
e 17 141
e 17 142
e 17 175
e 17 178
e 17 190
e 18 23
e 18 42
e 18 46
e 18 48
e 18 93
e 18 110
e 18 133
e 18 153
e 18 157
e 18 158
e 18 191
e 18 198
e 19 26
e 19 34
e 19 40
e 19 44
e 19 52
e 19 57
e 19 59
e 19 72
e 19 81
e 19 82
e 19 85
e 19 93
e 19 105
e 19 113
e 19 120
e 19 121
e 19 125
e 19 127
e 19 134
e 19 160
e 19 171
e 19 178
e 19 189
e 19 196
e 20 21
e 20 33
e 20 37
e 20 39
e 20 43
e 20 54
e 20 62
e 20 66
e 20 72
e 20 76
e 20 77
e 20 83
e 20 88
e 20 120
e 20 121
e 20 126
e 20 127
e 20 143
e 20 145
e 20 181
e 21 23
e 21 61
e 21 64
e 21 83
e 21 87
e 21 103
e 21 117
e 21 118
e 21 126
e 21 136
e 21 140
e 21 148
e 21 172
e 21 185
e 21 197
e 21 200
e 22 33
e 22 49
e 22 52
e 22 64
e 22 103
e 22 111
e 22 125
e 22 140
e 22 166
e 22 181
e 22 184
e 22 196
e 22 200
e 23 41
e 23 43
e 23 51
e 23 60
e 23 75
e 23 88
e 23 90
e 23 92
e 23 109
e 23 127
e 23 137
e 23 141
e 23 167
e 23 168
e 23 173
e 23 198
e 24 31
e 24 45
e 24 56
e 24 64
e 24 68
e 24 69
e 24 79
e 24 91
e 24 107
e 24 127
e 24 132
e 24 137
e 24 160
e 24 173
e 24 174
e 24 175
e 24 183
e 24 200
e 25 40
e 25 48
e 25 52
e 25 61
e 25 70
e 25 74
e 25 77
e 25 91
e 25 98
e 25 125
e 25 131
e 25 151
e 25 154
e 25 164
e 25 179
e 25 197
e 25 198
e 25 200
e 26 39
e 26 42
e 26 61
e 26 62
e 26 69
e 26 77
e 26 82
e 26 90
e 26 93
e 26 97
e 26 100
e 26 129
e 26 150
e 26 159
e 26 165
e 26 166
e 26 173
e 26 181
e 26 182
e 26 187
e 26 188
e 27 29
e 27 34
e 27 41
e 27 43
e 27 55
e 27 57
e 27 60
e 27 83
e 27 95
e 27 100
e 27 102
e 27 114
e 27 129
e 27 150
e 27 160
e 27 164
e 27 174
e 27 195
e 28 33
e 28 63
e 28 71
e 28 78
e 28 109
e 28 114
e 28 130
e 28 161
e 28 172
e 28 173
e 28 175
e 28 180
e 28 182
e 29 31
e 29 33
e 29 34
e 29 35
e 29 41
e 29 44
e 29 59
e 29 60
e 29 70
e 29 76
e 29 82
e 29 86
e 29 97
e 29 101
e 29 114
e 29 126
e 29 131
e 29 132
e 29 144
e 29 155
e 29 157
e 29 164
e 29 173
e 29 183
e 29 188
e 30 49
e 30 56
e 30 58
e 30 64
e 30 65
e 30 78
e 30 84
e 30 109
e 30 111
e 30 117
e 30 164
e 30 175
e 30 182
e 30 183
e 31 33
e 31 37
e 31 40
e 31 46
e 31 58
e 31 67
e 31 75
e 31 79
e 31 88
e 31 92
e 31 104
e 31 140
e 31 141
e 31 149
e 31 150
e 31 157
e 31 165
e 31 184
e 31 185
e 31 187
e 31 191
e 31 192
e 32 50
e 32 52
e 32 94
e 32 116
e 32 131
e 32 137
e 32 147
e 32 150
e 32 160
e 32 165
e 32 184
e 32 185
e 32 187
e 32 199
e 33 37
e 33 44
e 33 50
e 33 55
e 33 85
e 33 106
e 33 110
e 33 116
e 33 124
e 33 129
e 33 133
e 33 144
e 33 159
e 33 170
e 33 182
e 33 189
e 34 35
e 34 41
e 34 66
e 34 69
e 34 76
e 34 88
e 34 108
e 34 123
e 34 131
e 34 136
e 34 144
e 34 171
e 34 174
e 34 178
e 34 180
e 34 185
e 34 188
e 34 194
e 35 42
e 35 44
e 35 64
e 35 76
e 35 77
e 35 80
e 35 85
e 35 87
e 35 99
e 35 104
e 35 113
e 35 131
e 35 133
e 35 135
e 35 138
e 35 158
e 35 161
e 35 174
e 35 186
e 36 40
e 36 43
e 36 49
e 36 53
e 36 58
e 36 64
e 36 93
e 36 130
e 36 137
e 36 140
e 36 160
e 36 166
e 36 170
e 36 186
e 37 39
e 37 72
e 37 81
e 37 82
e 37 84
e 37 85
e 37 92
e 37 98
e 37 111
e 37 127
e 37 129
e 37 131
e 37 142
e 37 177
e 37 189
e 37 193
e 37 198
e 38 46
e 38 54
e 38 55
e 38 57
e 38 58
e 38 65
e 38 81
e 38 99
e 38 100
e 38 109
e 38 117
e 38 122
e 38 123
e 38 136
e 38 144
e 38 145
e 38 158
e 38 178
e 38 194
e 38 197
e 39 42
e 39 53
e 39 69
e 39 78
e 39 101
e 39 104
e 39 105
e 39 106
e 39 130
e 39 131
e 39 133
e 39 135
e 39 136
e 39 137
e 39 141
e 39 142
e 39 154
e 39 182
e 39 183
e 39 193
e 39 194
e 39 196
e 40 49
e 40 51
e 40 59
e 40 61
e 40 62
e 40 67
e 40 69
e 40 78
e 40 95
e 40 114
e 40 126
e 40 131
e 40 135
e 40 138
e 40 142
e 40 160
e 40 165
e 40 170
e 40 172
e 40 198
e 40 200
e 41 63
e 41 106
e 41 111
e 41 112
e 41 120
e 41 121
e 41 130
e 41 153
e 41 154
e 41 155
e 41 158
e 41 159
e 41 161
e 41 175
e 41 176
e 41 184
e 42 48
e 42 58
e 42 65
e 42 81
e 42 93
e 42 97
e 42 103
e 42 115
e 42 116
e 42 121
e 42 128
e 42 131
e 42 140
e 42 151
e 42 154
e 42 157
e 42 159
e 42 160
e 42 166
e 42 172
e 42 173
e 42 177
e 42 190
e 42 192
e 43 69
e 43 74
e 43 77
e 43 84
e 43 91
e 43 98
e 43 104
e 43 105
e 43 115
e 43 116
e 43 123
e 43 141
e 43 149
e 43 156
e 43 179
e 43 183
e 43 189
e 43 192
e 44 47
e 44 56
e 44 69
e 44 84
e 44 89
e 44 113
e 44 115
e 44 119
e 44 134
e 44 147
e 44 148
e 44 151
e 44 156
e 44 159
e 44 160
e 44 170
e 44 173
e 44 177
e 44 183
e 44 192
e 44 194
e 44 196
e 44 200
e 45 62
e 45 76
e 45 93
e 45 99
e 45 104
e 45 108
e 45 111
e 45 115
e 45 123
e 45 128
e 45 131
e 45 132
e 45 137
e 45 139
e 45 146
e 45 171
e 45 180
e 45 191
e 46 50
e 46 56
e 46 61
e 46 70
e 46 71
e 46 72
e 46 87
e 46 100
e 46 104
e 46 106
e 46 117
e 46 119
e 46 123
e 46 129
e 46 135
e 46 153
e 46 170
e 46 179
e 46 197
e 47 61
e 47 84
e 47 90
e 47 96
e 47 100
e 47 122
e 47 123
e 47 145
e 47 153
e 47 168
e 47 177
e 47 181
e 47 182
e 47 188
e 47 196
e 48 53
e 48 57
e 48 59
e 48 66
e 48 76
e 48 79
e 48 82
e 48 86
e 48 113
e 48 124
e 48 125
e 48 126
e 48 130
e 48 136
e 48 141
e 48 154
e 48 155
e 48 174
e 48 179
e 48 182
e 48 184
e 48 187
e 48 193
e 49 59
e 49 64
e 49 74
e 49 77
e 49 84
e 49 90
e 49 108
e 49 152
e 49 153
e 49 158
e 49 174
e 50 55
e 50 58
e 50 77
e 50 87
e 50 139
e 50 159
e 50 162
e 50 169
e 50 172
e 50 181
e 50 199
e 51 56
e 51 58
e 51 65
e 51 70
e 51 78
e 51 82
e 51 99
e 51 100
e 51 127
e 51 132
e 51 136
e 51 143
e 51 147
e 51 163
e 51 169
e 51 188
e 51 193
e 51 194
e 51 196
e 52 64
e 52 85
e 52 87
e 52 122
e 52 138
e 52 140
e 52 147
e 52 156
e 52 190
e 52 194
e 52 195
e 53 54
e 53 64
e 53 66
e 53 82
e 53 92
e 53 93
e 53 96
e 53 98
e 53 125
e 53 167
e 53 190
e 53 195
e 53 196
e 53 200
e 54 56
e 54 57
e 54 110
e 54 118
e 54 123
e 54 141
e 54 147
e 54 149
e 54 174
e 54 190
e 54 191
e 54 193
e 55 73
e 55 76
e 55 78
e 55 97
e 55 112
e 55 122
e 55 130
e 55 145
e 55 154
e 55 167
e 55 184
e 56 69
e 56 71
e 56 72
e 56 73
e 56 76
e 56 77
e 56 93
e 56 104
e 56 135
e 56 167
e 56 168
e 56 169
e 56 176
e 56 178
e 57 64
e 57 70
e 57 83
e 57 88
e 57 99
e 57 134
e 57 142
e 57 147
e 57 162
e 57 163
e 57 164
e 57 165
e 57 186
e 57 188
e 57 192
e 57 198
e 58 65
e 58 69
e 58 71
e 58 87
e 58 95
e 58 103
e 58 111
e 58 113
e 58 126
e 58 132
e 58 133
e 58 157
e 58 158
e 58 176
e 58 178
e 58 179
e 58 184
e 58 187
e 58 191
e 59 74
e 59 87
e 59 97
e 59 98
e 59 99
e 59 108
e 59 113
e 59 136
e 59 138
e 59 140
e 59 157
e 59 166
e 59 172
e 59 194
e 59 200
e 60 70
e 60 96
e 60 120
e 60 127
e 60 148
e 60 157
e 60 174
e 60 178
e 60 196
e 61 68
e 61 76
e 61 87
e 61 100
e 61 114
e 61 118
e 61 127
e 61 131
e 61 133
e 61 135
e 61 146
e 61 154
e 61 166
e 61 176
e 61 180
e 61 184
e 61 189
e 61 190
e 61 193
e 62 69
e 62 75
e 62 78
e 62 82
e 62 101
e 62 108
e 62 111
e 62 127
e 62 148
e 62 157
e 62 174
e 62 183
e 62 188
e 62 193
e 63 78
e 63 79
e 63 82
e 63 84
e 63 92
e 63 119
e 63 120
e 63 123
e 63 127
e 63 129
e 63 173
e 63 175
e 63 178
e 63 180
e 63 183
e 63 192
e 63 195
e 64 68
e 64 70
e 64 80
e 64 92
e 64 93
e 64 101
e 64 109
e 64 112
e 64 122
e 64 140
e 64 144
e 64 149
e 64 169
e 64 181
e 64 184
e 64 185
e 64 189
e 65 67
e 65 76
e 65 89
e 65 101
e 65 108
e 65 124
e 65 144
e 65 150
e 65 167
e 65 170
e 65 179
e 65 181
e 66 69
e 66 74
e 66 81
e 66 87
e 66 90
e 66 93
e 66 94
e 66 98
e 66 103
e 66 114
e 66 131
e 66 140
e 66 153
e 66 166
e 66 177
e 66 181
e 66 183
e 66 196
e 67 72
e 67 87
e 67 95
e 67 113
e 67 114
e 67 124
e 67 131
e 67 135
e 67 162
e 67 163
e 67 165
e 67 175
e 67 179
e 67 180
e 67 185
e 67 186
e 67 197
e 68 85
e 68 89
e 68 94
e 68 105
e 68 115
e 68 116
e 68 124
e 68 135
e 68 138
e 68 161
e 68 176
e 68 178
e 68 187
e 69 73
e 69 74
e 69 78
e 69 143
e 69 149
e 69 151
e 69 155
e 69 180
e 69 191
e 70 86
e 70 96
e 70 103
e 70 107
e 70 120
e 70 125
e 70 128
e 70 141
e 70 156
e 70 159
e 70 165
e 70 172
e 70 173
e 70 175
e 70 183
e 70 184
e 70 193
e 70 197
e 71 72
e 71 75
e 71 84
e 71 95
e 71 111
e 71 119
e 71 121
e 71 125
e 71 148
e 71 163
e 71 164
e 71 173
e 71 177
e 72 86
e 72 89
e 72 104
e 72 113
e 72 114
e 72 117
e 72 126
e 72 161
e 72 166
e 72 173
e 72 181
e 72 191
e 72 198
e 72 200
e 73 96
e 73 101
e 73 102
e 73 107
e 73 118
e 73 119
e 73 132
e 73 140
e 73 146
e 73 154
e 73 165
e 73 196
e 74 78
e 74 91
e 74 110
e 74 115
e 74 116
e 74 130
e 74 131
e 74 138
e 74 139
e 74 151
e 74 154
e 74 160
e 74 167
e 74 171
e 74 180
e 74 183
e 74 187
e 75 76
e 75 86
e 75 97
e 75 99
e 75 101
e 75 105
e 75 111
e 75 113
e 75 115
e 75 117
e 75 119
e 75 126
e 75 140
e 75 151
e 75 155
e 75 167
e 75 171
e 75 173
e 75 185
e 75 200
e 76 77
e 76 78
e 76 84
e 76 94
e 76 98
e 76 119
e 76 120
e 76 126
e 76 128
e 76 139
e 76 152
e 76 159
e 76 161
e 76 162
e 76 177
e 76 179
e 76 192
e 76 193
e 77 88
e 77 89
e 77 103
e 77 111
e 77 112
e 77 121
e 77 128
e 77 136
e 77 155
e 77 158
e 77 170
e 77 172
e 77 175
e 77 193
e 78 94
e 78 106
e 78 108
e 78 134
e 78 146
e 78 148
e 78 168
e 78 194
e 78 198
e 79 84
e 79 85
e 79 95
e 79 107
e 79 115
e 79 122
e 79 140
e 79 144
e 79 162
e 79 185
e 79 188
e 79 198
e 79 200
e 80 89
e 80 92
e 80 98
e 80 118
e 80 123
e 80 127
e 80 142
e 80 144
e 80 159
e 80 168
e 80 171
e 80 172
e 80 175
e 80 182
e 80 187
e 80 190
e 80 193
e 80 196
e 81 85
e 81 87
e 81 102
e 81 118
e 81 128
e 81 146
e 81 154
e 81 160
e 81 161
e 81 163
e 81 168
e 81 169
e 81 177
e 81 194
e 81 195
e 81 196
e 82 108
e 82 110
e 82 128
e 82 140
e 82 148
e 82 155
e 82 161
e 82 168
e 82 182
e 83 84
e 83 86
e 83 100
e 83 103
e 83 105
e 83 110
e 83 116
e 83 129
e 83 130
e 83 135
e 83 138
e 83 139
e 83 157
e 83 174
e 83 175
e 84 85
e 84 109
e 84 157
e 84 158
e 84 175
e 84 185
e 84 192
e 84 196
e 84 197
e 85 87
e 85 88
e 85 104
e 85 105
e 85 108
e 85 113
e 85 115
e 85 120
e 85 124
e 85 153
e 85 156
e 85 157
e 85 159
e 85 163
e 85 164
e 85 169
e 85 172
e 85 184
e 85 195
e 86 98
e 86 109
e 86 110
e 86 118
e 86 126
e 86 147
e 86 149
e 86 152
e 86 154
e 86 160
e 86 163
e 86 164
e 86 173
e 86 182
e 86 183
e 86 187
e 87 91
e 87 97
e 87 106
e 87 110
e 87 112
e 87 115
e 87 116
e 87 155
e 87 157
e 87 160
e 87 173
e 87 183
e 87 193
e 88 92
e 88 94
e 88 105
e 88 108
e 88 111
e 88 114
e 88 117
e 88 130
e 88 166
e 88 169
e 88 175
e 88 187
e 88 200
e 89 107
e 89 121
e 89 128
e 89 129
e 89 131
e 89 141
e 89 145
e 89 154
e 89 158
e 89 164
e 89 175
e 89 180
e 90 91
e 90 98
e 90 110
e 90 112
e 90 119
e 90 120
e 90 150
e 90 166
e 90 169
e 90 174
e 90 185
e 90 189
e 90 192
e 91 115
e 91 119
e 91 125
e 91 130
e 91 136
e 91 137
e 91 138
e 91 142
e 91 148
e 91 166
e 91 168
e 91 179
e 92 93
e 92 103
e 92 124
e 92 152
e 92 157
e 92 159
e 92 175
e 92 178
e 92 179
e 92 188
e 92 195
e 93 96
e 93 102
e 93 107
e 93 111
e 93 116
e 93 130
e 93 154
e 93 157
e 93 164
e 93 170
e 93 174
e 93 178
e 93 191
e 93 198
e 94 97
e 94 103
e 94 112
e 94 121
e 94 128
e 94 130
e 94 145
e 94 162
e 94 164
e 94 172
e 94 175
e 94 181
e 94 185
e 94 194
e 95 99
e 95 128
e 95 134
e 95 135
e 95 136
e 95 140
e 95 144
e 96 103
e 96 108
e 96 111
e 96 113
e 96 129
e 96 150
e 96 168
e 96 170
e 96 175
e 96 193
e 97 108
e 97 147
e 97 160
e 97 186
e 97 187
e 97 191
e 97 199
e 98 129
e 98 132
e 98 134
e 98 135
e 98 155
e 98 156
e 98 176
e 98 200
e 99 115
e 99 130
e 99 137
e 99 145
e 99 165
e 99 169
e 99 170
e 99 178
e 99 179
e 99 181
e 99 190
e 99 191
e 99 195
e 99 200
e 100 105
e 100 130
e 100 142
e 100 155
e 100 160
e 100 184
e 100 185
e 100 186
e 100 200
e 101 114
e 101 121
e 101 123
e 101 136
e 101 167
e 101 170
e 101 180
e 101 184
e 101 193
e 102 109
e 102 128
e 102 132
e 102 135
e 102 149
e 102 155
e 102 159
e 102 160
e 102 162
e 102 171
e 102 172
e 102 181
e 102 199
e 103 105
e 103 109
e 103 113
e 103 115
e 103 128
e 103 140
e 103 175
e 104 105
e 104 116
e 104 117
e 104 119
e 104 135
e 104 173
e 104 176
e 104 186
e 104 189
e 104 196
e 105 109
e 105 111
e 105 120
e 105 140
e 105 148
e 105 167
e 105 169
e 105 182
e 105 183
e 105 188
e 106 115
e 106 140
e 106 142
e 106 181
e 106 189
e 106 193
e 107 123
e 107 127
e 107 143
e 107 149
e 107 156
e 107 158
e 107 177
e 107 180
e 107 185
e 107 193
e 108 117
e 108 130
e 108 132
e 108 141
e 108 147
e 108 149
e 108 175
e 109 118
e 109 120
e 109 139
e 109 147
e 109 148
e 109 160
e 109 166
e 109 168
e 109 170
e 109 173
e 109 175
e 109 188
e 109 196
e 109 197
e 109 199
e 110 128
e 110 130
e 110 131
e 110 149
e 110 172
e 110 178
e 110 179
e 110 182
e 110 185
e 110 188
e 110 194
e 110 195
e 110 200
e 111 112
e 111 126
e 111 141
e 111 144
e 111 154
e 111 158
e 111 163
e 111 170
e 111 171
e 111 173
e 111 177
e 111 183
e 111 192
e 112 120
e 112 146
e 112 147
e 112 165
e 112 166
e 112 174
e 112 185
e 113 118
e 113 124
e 113 126
e 113 139
e 113 143
e 113 144
e 113 149
e 113 151
e 113 152
e 113 158
e 113 165
e 113 167
e 113 175
e 113 184
e 113 188
e 113 191
e 114 145
e 114 146
e 114 170
e 114 171
e 114 173
e 114 190
e 115 143
e 115 148
e 115 153
e 115 173
e 115 176
e 115 177
e 115 185
e 115 190
e 116 130
e 116 139
e 116 152
e 116 153
e 116 156
e 116 167
e 116 171
e 116 189
e 116 195
e 116 197
e 117 118
e 117 120
e 117 122
e 117 136
e 117 153
e 117 155
e 117 161
e 117 183
e 117 184
e 117 194
e 118 127
e 118 136
e 118 146
e 118 149
e 118 177
e 118 178
e 118 193
e 119 122
e 119 136
e 119 147
e 119 148
e 119 151
e 119 156
e 119 161
e 119 163
e 119 171
e 119 177
e 119 182
e 119 189
e 120 122
e 120 150
e 120 159
e 120 160
e 120 167
e 120 183
e 120 191
e 121 130
e 121 142
e 121 175
e 121 178
e 121 184
e 121 187
e 121 190
e 121 193
e 121 199
e 122 134
e 122 135
e 122 138
e 122 146
e 122 151
e 122 154
e 122 186
e 122 187
e 122 199
e 123 126
e 123 136
e 123 138
e 123 170
e 123 179
e 123 182
e 123 188
e 123 191
e 124 130
e 124 143
e 124 150
e 124 153
e 124 155
e 124 160
e 124 175
e 124 185
e 124 193
e 125 133
e 125 138
e 125 144
e 125 156
e 125 175
e 125 188
e 125 190
e 125 192
e 125 198
e 126 128
e 126 138
e 126 140
e 126 150
e 126 151
e 126 163
e 126 182
e 126 196
e 127 147
e 127 165
e 127 174
e 127 180
e 127 186
e 128 130
e 128 131
e 128 133
e 128 137
e 128 143
e 128 158
e 128 169
e 128 177
e 128 181
e 128 183
e 128 186
e 128 190
e 128 194
e 129 134
e 129 139
e 129 159
e 129 181
e 129 188
e 129 200
e 130 138
e 130 142
e 130 155
e 130 196
e 130 199
e 131 139
e 131 141
e 131 152
e 131 153
e 131 160
e 131 165
e 131 168
e 131 179
e 131 187
e 131 196
e 132 137
e 132 154
e 132 160
e 132 164
e 132 165
e 132 166
e 132 167
e 132 190
e 132 191
e 133 147
e 133 150
e 133 151
e 133 155
e 133 184
e 133 186
e 133 189
e 134 144
e 134 147
e 134 175
e 134 180
e 135 141
e 135 144
e 135 147
e 135 149
e 135 162
e 135 168
e 135 177
e 135 183
e 136 160
e 136 165
e 136 177
e 137 140
e 137 150
e 137 162
e 137 166
e 137 199
e 137 200
e 138 139
e 138 140
e 138 156
e 138 168
e 138 174
e 138 182
e 138 189
e 138 196
e 139 146
e 139 150
e 139 154
e 139 157
e 139 161
e 139 164
e 139 173
e 139 175
e 140 149
e 140 167
e 140 171
e 140 186
e 140 193
e 140 198
e 141 145
e 141 150
e 141 162
e 141 185
e 142 143
e 142 167
e 142 192
e 142 198
e 142 199
e 143 154
e 143 159
e 143 160
e 143 175
e 143 188
e 143 189
e 143 195
e 143 197
e 144 151
e 144 178
e 144 188
e 144 196
e 145 151
e 145 157
e 145 162
e 145 182
e 145 185
e 145 188
e 145 194
e 146 151
e 146 165
e 146 176
e 146 191
e 147 151
e 147 153
e 147 154
e 147 157
e 147 161
e 147 165
e 147 175
e 147 183
e 147 184
e 147 187
e 147 188
e 147 191
e 148 156
e 148 173
e 148 179
e 148 187
e 148 190
e 148 200
e 149 152
e 149 156
e 149 159
e 149 175
e 149 185
e 149 198
e 149 199
e 150 176
e 150 180
e 150 182
e 150 189
e 150 194
e 150 198
e 150 199
e 151 168
e 151 169
e 151 176
e 151 197
e 151 200
e 152 153
e 152 191
e 152 193
e 153 156
e 153 166
e 153 167
e 153 173
e 153 176
e 153 178
e 153 180
e 153 187
e 154 170
e 154 184
e 154 189
e 155 158
e 155 161
e 155 169
e 155 182
e 155 188
e 155 198
e 155 200
e 156 161
e 156 162
e 156 163
e 156 166
e 156 170
e 156 173
e 156 191
e 157 158
e 157 165
e 157 168
e 157 173
e 157 177
e 157 179
e 157 183
e 157 189
e 157 200
e 158 162
e 158 176
e 158 185
e 158 195
e 159 162
e 159 164
e 159 165
e 159 167
e 159 196
e 159 199
e 160 164
e 160 170
e 160 179
e 160 189
e 160 194
e 160 198
e 160 199
e 161 162
e 161 186
e 161 191
e 161 193
e 161 196
e 162 169
e 162 172
e 162 181
e 162 189
e 162 200
e 163 173
e 163 176
e 163 197
e 164 171
e 164 179
e 164 196
e 165 171
e 165 197
e 166 176
e 166 192
e 166 200
e 167 171
e 168 170
e 168 182
e 168 185
e 168 196
e 169 173
e 169 178
e 169 184
e 170 180
e 170 181
e 170 192
e 170 194
e 170 196
e 171 191
e 171 194
e 171 195
e 172 183
e 173 192
e 173 193
e 173 198
e 173 199
e 174 188
e 174 189
e 174 195
e 175 178
e 175 187
e 175 193
e 175 196
e 175 198
e 176 177
e 176 182
e 176 188
e 176 200
e 177 179
e 177 186
e 177 198
e 178 188
e 179 180
e 179 193
e 179 196
e 179 198
e 180 181
e 180 182
e 180 188
e 180 196
e 181 182
e 181 195
e 182 188
e 182 190
e 182 192
e 182 195
e 183 197
e 183 198
e 185 188
e 185 189
e 187 192
e 187 193
e 187 198
e 187 199
e 189 190
e 189 192
e 190 191
e 190 193
e 192 196
e 194 196
e 195 196
